SDVRP instances/custom_instances/p03_6_split0.vrp
NAME:p03_6_split
BEST_KNOWN: 0
COMMENT: 0
DIMENSION: 462
CAPACITY: 200
EDGE_WEIGHT_FORMAT: FUNCTION
EDGE_WEIGHT_TYPE: EXACT_2D
NODE_COORD_SECTION
1 0.00000 0.00000
2 -13 -16
3 -13 -16
4 -13 -16
5 -13 -16
6 -13 -16
7 -13 -16
8 11 1
9 11 1
10 11 1
11 11 1
12 11 1
13 11 1
14 43 31
15 43 31
16 43 31
17 43 31
18 50 -22
19 50 -22
20 42 -42
21 42 -42
22 42 -42
23 42 -42
24 35 3
25 35 3
26 35 3
27 35 3
28 12 43
29 12 43
30 12 43
31 12 43
32 24 -20
33 24 -20
34 24 -20
35 24 -20
36 24 -20
37 24 -20
38 33 3
39 33 3
40 33 3
41 33 3
42 33 3
43 33 3
44 23 8
45 23 8
46 23 8
47 -40 13
48 -40 13
49 -40 13
50 -40 13
51 18 -40
52 18 -40
53 18 -40
54 18 -40
55 18 -40
56 -15 45
57 -15 45
58 -15 45
59 -24 -48
60 -24 -48
61 -24 -48
62 -24 -48
63 -24 -48
64 12 20
65 12 20
66 12 20
67 12 20
68 12 20
69 12 20
70 12 20
71 -38 23
72 -38 23
73 -22 45
74 -22 45
75 -22 45
76 -21 28
77 -21 28
78 -21 28
79 -21 28
80 -21 28
81 -21 28
82 11 -16
83 11 -16
84 11 -16
85 11 -16
86 3 14
87 3 14
88 3 14
89 3 14
90 3 14
91 3 14
92 -23 26
93 -23 26
94 -23 26
95 3 -14
96 3 -14
97 3 -14
98 28 -5
99 28 -5
100 28 -5
101 28 -5
102 -41 22
103 -41 22
104 -41 22
105 -38 -48
106 -38 -48
107 -38 -48
108 -38 -48
109 28 -18
110 28 -18
111 28 -18
112 28 -18
113 28 -18
114 -18 -31
115 -18 -31
116 -18 -31
117 -18 -31
118 -18 -31
119 23 11
120 23 11
121 23 11
122 23 11
123 23 11
124 -8 37
125 -8 37
126 -8 37
127 -8 37
128 -8 37
129 -8 37
130 -8 37
131 -12 7
132 -12 7
133 -12 7
134 -12 7
135 -12 7
136 -45 -21
137 -45 -21
138 -45 -21
139 -24 19
140 -24 19
141 -24 19
142 -24 19
143 -35 -34
144 -35 -34
145 1 -35
146 1 -35
147 -27 23
148 -27 23
149 -27 23
150 -27 23
151 -27 23
152 -27 23
153 -27 23
154 18 20
155 18 20
156 18 20
157 18 20
158 18 20
159 23 32
160 23 32
161 23 32
162 -43 40
163 -43 40
164 -43 40
165 -43 40
166 -43 40
167 11 22
168 11 22
169 11 22
170 11 22
171 11 22
172 -42 10
173 -42 10
174 -42 10
175 29 -38
176 29 -38
177 12 1
178 12 1
179 12 1
180 12 1
181 -44 -20
182 -44 -20
183 -44 -20
184 -44 -20
185 -44 -20
186 -49 0
187 -49 0
188 -49 0
189 -49 0
190 42 -29
191 42 -29
192 42 -29
193 42 -29
194 -44 12
195 -44 12
196 -44 12
197 -44 12
198 -34 49
199 -34 49
200 -34 49
201 -4 33
202 -4 33
203 -4 33
204 -4 33
205 -4 33
206 40 35
207 40 35
208 40 35
209 40 35
210 40 35
211 40 35
212 -6 29
213 -6 29
214 -6 29
215 -6 29
216 -6 29
217 -6 29
218 -6 29
219 50 15
220 50 15
221 50 15
222 50 15
223 50 15
224 -33 4
225 -33 4
226 -33 4
227 -33 4
228 43 42
229 43 42
230 43 42
231 43 42
232 34 22
233 34 22
234 34 22
235 34 22
236 34 22
237 34 22
238 34 22
239 -21 -40
240 -21 -40
241 -21 -40
242 -21 -40
243 -21 -40
244 28 4
245 28 4
246 28 4
247 28 4
248 28 4
249 28 4
250 -26 5
251 -26 5
252 -26 5
253 -26 5
254 -26 5
255 -26 5
256 17 28
257 17 28
258 17 28
259 17 28
260 17 28
261 17 28
262 -19 -31
263 -19 -31
264 -19 -31
265 -46 32
266 -46 32
267 -46 32
268 -46 32
269 -46 32
270 -46 32
271 -35 41
272 -35 41
273 -35 41
274 8 -15
275 8 -15
276 8 -15
277 22 -32
278 22 -32
279 22 -32
280 22 -32
281 -24 -1
282 -24 -1
283 -24 -1
284 -24 -1
285 -24 -1
286 -25 29
287 -25 29
288 -25 29
289 -25 29
290 -25 29
291 -25 29
292 19 -25
293 19 -25
294 19 -25
295 19 -25
296 19 -25
297 35 0
298 35 0
299 -19 6
300 -19 6
301 -19 6
302 -19 6
303 -19 6
304 -19 6
305 -19 6
306 -19 6
307 47 -15
308 47 -15
309 47 -15
310 47 -15
311 25 -33
312 25 -33
313 25 -33
314 25 -33
315 25 -33
316 25 -33
317 17 -30
318 17 -30
319 17 -30
320 17 -30
321 -46 -2
322 -46 -2
323 -46 -2
324 -6 36
325 -6 36
326 -6 36
327 -6 36
328 -6 36
329 -6 36
330 -6 36
331 40 5
332 40 5
333 40 5
334 40 5
335 40 5
336 -8 -3
337 -8 -3
338 -8 -3
339 -8 -3
340 23 33
341 23 33
342 23 33
343 -2 6
344 -2 6
345 -2 6
346 -2 6
347 -32 19
348 -32 19
349 -32 19
350 2 -43
351 2 -43
352 2 -43
353 2 -43
354 2 -43
355 7 -50
356 7 -50
357 7 -50
358 7 -50
359 12 -3
360 12 -3
361 12 -3
362 12 -3
363 12 -3
364 12 -3
365 50 -1
366 50 -1
367 50 -1
368 50 -1
369 50 -1
370 50 -1
371 50 -1
372 50 -1
373 -32 -33
374 -32 -33
375 -32 -33
376 -32 -33
377 27 4
378 27 4
379 27 4
380 27 4
381 27 4
382 27 4
383 27 4
384 27 4
385 22 39
386 22 39
387 22 39
388 44 -10
389 44 -10
390 44 -10
391 44 -10
392 44 -10
393 44 -10
394 44 -10
395 -47 24
396 -47 24
397 -47 24
398 -47 24
399 10 -42
400 10 -42
401 10 -42
402 10 -42
403 -42 39
404 -42 39
405 -42 39
406 -42 39
407 -4 -29
408 -4 -29
409 -4 -29
410 -4 -29
411 0 24
412 0 24
413 0 24
414 0 24
415 0 24
416 0 24
417 -22 -46
418 -22 -46
419 -22 -46
420 -22 -46
421 -22 -46
422 -14 -4
423 -14 -4
424 -14 -4
425 -14 -4
426 -14 -4
427 -14 -4
428 -37 36
429 -37 36
430 -37 36
431 -37 36
432 -37 36
433 37 -50
434 37 -50
435 37 -50
436 37 -50
437 37 -50
438 37 -50
439 29 -23
440 29 -23
441 29 -23
442 29 -23
443 29 -23
444 29 -23
445 -29 -19
446 -29 -19
447 -29 -19
448 -29 -19
449 -29 -19
450 -29 -19
451 14 -9
452 14 -9
453 14 -9
454 14 -9
455 -16 39
456 -16 39
457 -16 39
458 -40 37
459 -40 37
460 -40 37
461 -40 37
462 -40 37
DEMAND_SECTION
1 0
2 40
3 40
4 2
5 2
6 2
7 2
8 40
9 20
10 10
11 2
12 2
13 1
14 20
15 10
16 2
17 1
18 40
19 10
20 40
21 2
22 2
23 2
24 40
25 20
26 2
27 2
28 40
29 10
30 2
31 2
32 40
33 40
34 10
35 2
36 2
37 2
38 40
39 20
40 2
41 2
42 2
43 2
44 40
45 10
46 1
47 40
48 10
49 2
50 2
51 20
52 2
53 2
54 2
55 2
56 40
57 40
58 2
59 40
60 40
61 2
62 2
63 1
64 40
65 10
66 2
67 2
68 2
69 2
70 1
71 40
72 2
73 40
74 20
75 2
76 40
77 40
78 2
79 2
80 2
81 2
82 40
83 2
84 2
85 2
86 40
87 20
88 2
89 2
90 2
91 1
92 40
93 20
94 1
95 40
96 40
97 20
98 40
99 20
100 2
101 2
102 40
103 20
104 1
105 20
106 10
107 2
108 2
109 40
110 20
111 10
112 2
113 2
114 40
115 40
116 2
117 2
118 2
119 20
120 2
121 2
122 2
123 2
124 40
125 40
126 10
127 2
128 2
129 2
130 2
131 40
132 20
133 10
134 2
135 2
136 40
137 10
138 2
139 40
140 20
141 10
142 1
143 40
144 1
145 40
146 20
147 40
148 20
149 10
150 2
151 2
152 2
153 1
154 40
155 20
156 2
157 2
158 2
159 40
160 2
161 1
162 40
163 10
164 2
165 2
166 2
167 40
168 2
169 2
170 2
171 1
172 40
173 20
174 10
175 20
176 10
177 20
178 2
179 2
180 2
181 40
182 40
183 2
184 2
185 1
186 40
187 40
188 2
189 1
190 40
191 40
192 2
193 2
194 20
195 10
196 2
197 2
198 40
199 10
200 1
201 40
202 2
203 2
204 2
205 1
206 40
207 2
208 2
209 2
210 2
211 1
212 40
213 10
214 2
215 2
216 2
217 2
218 1
219 40
220 20
221 2
222 2
223 1
224 20
225 10
226 2
227 1
228 40
229 20
230 10
231 2
232 40
233 10
234 2
235 2
236 2
237 2
238 1
239 40
240 40
241 10
242 2
243 2
244 20
245 10
246 2
247 2
248 2
249 1
250 40
251 20
252 10
253 2
254 2
255 1
256 40
257 20
258 2
259 2
260 2
261 1
262 40
263 10
264 1
265 40
266 40
267 2
268 2
269 2
270 1
271 40
272 40
273 10
274 40
275 40
276 2
277 40
278 20
279 10
280 1
281 40
282 2
283 2
284 2
285 2
286 40
287 20
288 10
289 2
290 2
291 2
292 40
293 2
294 2
295 2
296 1
297 40
298 10
299 40
300 40
301 10
302 2
303 2
304 2
305 2
306 1
307 40
308 40
309 10
310 2
311 20
312 10
313 2
314 2
315 2
316 2
317 40
318 10
319 2
320 1
321 20
322 10
323 2
324 20
325 10
326 2
327 2
328 2
329 2
330 1
331 40
332 20
333 2
334 2
335 1
336 40
337 40
338 2
339 1
340 40
341 40
342 1
343 40
344 20
345 10
346 1
347 40
348 10
349 1
350 40
351 40
352 2
353 2
354 2
355 40
356 20
357 2
358 2
359 40
360 10
361 2
362 2
363 2
364 1
365 40
366 20
367 10
368 2
369 2
370 2
371 2
372 1
373 20
374 10
375 2
376 2
377 40
378 40
379 10
380 2
381 2
382 2
383 2
384 1
385 40
386 20
387 1
388 40
389 20
390 10
391 2
392 2
393 2
394 2
395 20
396 2
397 2
398 1
399 20
400 10
401 2
402 2
403 40
404 10
405 2
406 2
407 40
408 20
409 2
410 2
411 40
412 20
413 2
414 2
415 2
416 1
417 20
418 2
419 2
420 2
421 2
422 40
423 40
424 10
425 2
426 2
427 2
428 20
429 10
430 2
431 2
432 1
433 40
434 20
435 10
436 2
437 2
438 1
439 40
440 10
441 2
442 2
443 2
444 2
445 20
446 10
447 2
448 2
449 2
450 1
451 40
452 40
453 2
454 1
455 40
456 40
457 2
458 40
459 2
460 2
461 2
462 2
DEPOT_SECTION
1
-1
EOF