SDVRP instances/custom_instances/p03_6_split0.sol
461 -3 4 6 2 1 5 262 261 263 114 117 116 -8 9 11 383 382 377 381 376 379 380 43 44 45 120 121 122 118 119 -10 12 7 360 361 362 359 363 358 451 453 450 452 -29 28 27 30 386 385 384 339 341 340 -33 34 36 189 192 191 190 17 18 306 309 308 -35 31 32 438 108 112 110 109 111 -48 47 49 46 195 194 193 196 171 172 173 226 223 225 224 -70 165 161 162 163 164 405 404 403 402 460 458 459 461 457 431 -80 79 78 76 77 75 288 285 287 286 91 -83 84 82 81 54 51 50 53 52 145 144 407 406 409 408 -85 87 90 413 411 410 204 203 200 211 217 212 -88 89 86 169 168 166 167 170 69 68 63 65 67 64 66 153 154 157 155 156 -93 92 290 289 428 429 427 430 270 272 271 199 197 198 -96 95 94 273 275 274 -98 99 97 100 37 41 42 38 244 245 248 247 246 243 378 176 -103 102 101 396 397 395 394 264 266 269 265 268 267 71 131 133 134 -113 115 238 242 58 59 60 61 62 419 420 417 418 416 -137 136 135 180 182 184 183 181 282 281 283 280 284 -138 140 139 141 146 152 148 147 151 149 150 346 348 347 -178 179 177 39 40 25 24 23 26 332 330 331 334 333 297 296 -209 208 210 206 207 205 227 228 230 229 13 15 16 14 234 235 231 233 -214 216 215 213 325 127 129 55 57 56 72 74 73 456 455 -219 220 221 218 222 232 236 237 159 158 160 255 259 256 258 260 257 -240 239 241 105 104 107 106 142 143 374 372 375 373 444 447 449 448 446 445 -254 252 253 251 249 250 187 186 188 185 320 321 322 -292 295 293 291 294 314 310 315 279 278 276 277 316 317 318 319 -301 303 299 300 298 302 305 304 132 130 344 345 342 -312 311 313 174 175 435 436 434 432 433 437 19 22 20 21 441 439 440 442 443 -336 338 337 335 422 426 425 421 423 424 -343 454 128 126 124 125 123 327 328 324 326 323 329 201 202 414 415 412 -350 351 353 352 349 357 355 356 354 399 398 400 401 -371 369 364 368 366 365 367 370 307 392 391 390 388 393 389 387 0 





OBJ=
2896.477
BEST_KNOWN=
0.000